Optimal - objective value 3818.00000000
     16 x_0_17                  1                     -68
     20 x_1_2                   1                       0
     56 x_2_19                  1                       0
     64 x_3_8                   1                       0
     90 x_4_15                  1                     -70
     99 x_5_4                   1                       0
    125 x_6_12                  1                       0
    141 x_7_9                   1                     374
    165 x_8_14                  1                       0
    186 x_9_16                  1                       0
    200 x_10_11                 1                       0
    214 x_11_5                  1                       0
    238 x_12_10                 1                       0
    250 x_13_3                  1                     392
    272 x_14_6                  1                       0
    286 x_15_1                  1                     140
    321 x_16_18                 1                     104
    330 x_17_7                  1                       0
    355 x_18_13                 1                       0
    361 x_19_0                  1                      29
    380 u_1                    17                       0
    381 u_2                    18                       0
    382 u_3       6.99999999999998                       0
    383 u_4                    15                       0
    384 u_5                    14                       0
    385 u_6       9.99999999999998                       0
    386 u_7                     2                       0
    387 u_8       7.99999999999998                       0
    388 u_9                     3                       0
    389 u_10                   12                       0
    390 u_11                   13                       0
    391 u_12                   11                       0
    392 u_13      5.99999999999998                       0
    393 u_14      8.99999999999998                       0
    394 u_15                   16                       0
    395 u_16      3.99999999999998                       0
    396 u_17                    1                       0
    397 u_18      4.99999999999998                       0
    398 u_19                   19                       0
